NAME : morphed21-5-11
COMMENT : Generated using the function morphInstances from the R-package netgen (Bossek,2015) - Number of clusters: 5 Alpha: 0.5
TYPE : TSP
DIMENSION : 21
EDGE_WEIGHT_TYPE : EUC_2D
NODE_COORD_SECTION
1 27.4330513948 77.6113617305
2 7.196722715 42.5147691095
3 51.2627556143 30.9322795399
4 7.5405203858 23.0604265682
5 14.8123087319 71.688086266
6 90.6841379565 54.748240113
7 13.1128468379 24.1389180017
8 36.5965604111 16.7284881668
9 84.6041158163 51.2096897084
10 19.9859327339 71.998042762
11 17.9701274187 36.5019461215
12 37.2372662246 67.0759049152
13 83.3816703797 11.1028188559
14 86.5418627717 77.4145901944
15 73.7856680153 71.1571878866
16 63.6686097611 15.325730256
17 56.3666663859 8.5401934426
18 37.578263515 25.6439668699
19 41.4185212793 5.2622907312
20 50.167710251 19.854578883
21 20.9276760174 32.2752594238
EOF
